
Gurobi 6.0.5 (linux64) logging started Mon Oct 12 21:38:13 2015

Set parameter Presolve to value 2
Set parameter MIPGap to value 0.05
Set parameter OutputFlag to value 1
Set parameter Threads to value 1

Gurobi 6.0.5 (linux64) logging started Mon Oct 12 21:38:20 2015

Set parameter Presolve to value 2
Set parameter MIPGap to value 0.9
Set parameter OutputFlag to value 1
Set parameter Threads to value 1

Gurobi 6.0.5 (linux64) logging started Mon Oct 12 22:14:11 2015

Set parameter Presolve to value 2
Set parameter MIPGap to value 0.9
Set parameter OutputFlag to value 1
Set parameter Threads to value 1

Gurobi 6.0.5 (linux64) logging started Mon Oct 12 22:16:25 2015

Set parameter Presolve to value 2
Set parameter MIPGap to value 0.9
Set parameter OutputFlag to value 1
Set parameter Threads to value 1

Gurobi 6.0.5 (linux64) logging started Mon Oct 12 22:25:20 2015

Set parameter Presolve to value 2
Set parameter MIPGap to value 0.9
Set parameter OutputFlag to value 1
Set parameter Threads to value 1

Gurobi 6.0.5 (linux64) logging started Mon Oct 12 22:30:50 2015

Set parameter Presolve to value 2
Set parameter MIPGap to value 0.05
Set parameter OutputFlag to value 1
Set parameter Threads to value 1

Gurobi 6.0.5 (linux64) logging started Mon Oct 12 22:31:15 2015

Set parameter Presolve to value 2
Set parameter MIPGap to value 0.9
Set parameter OutputFlag to value 1
Set parameter Threads to value 1

Gurobi 6.0.5 (linux64) logging started Tue Oct 13 09:40:41 2015

Set parameter Presolve to value 2
Set parameter MIPGap to value 0.05
Set parameter OutputFlag to value 1
Set parameter Threads to value 1

Gurobi 6.0.5 (linux64) logging started Tue Oct 13 09:40:44 2015

Set parameter Presolve to value 2
Set parameter MIPGap to value 0.9
Set parameter OutputFlag to value 1
Set parameter Threads to value 1

Gurobi 6.0.5 (linux64) logging started Tue Oct 13 09:40:45 2015

Set parameter Presolve to value 2
Set parameter MIPGap to value 0.05
Set parameter OutputFlag to value 1
Set parameter Threads to value 1

Gurobi 6.0.5 (linux64) logging started Tue Oct 13 09:40:48 2015

Set parameter Presolve to value 2
Set parameter MIPGap to value 0.9
Set parameter OutputFlag to value 1
Set parameter Threads to value 1

Gurobi 6.0.5 (linux64) logging started Tue Oct 13 09:40:49 2015

Set parameter Presolve to value 2
Set parameter MIPGap to value 0.05
Set parameter OutputFlag to value 1
Set parameter Threads to value 1

Gurobi 6.0.5 (linux64) logging started Tue Oct 13 09:40:50 2015

Set parameter Presolve to value 2
Set parameter MIPGap to value 0.05
Set parameter OutputFlag to value 1
Set parameter Threads to value 1

Gurobi 6.0.5 (linux64) logging started Tue Oct 13 09:40:52 2015

Set parameter Presolve to value 2
Set parameter MIPGap to value 0.9
Set parameter OutputFlag to value 1
Set parameter Threads to value 1

Gurobi 6.0.5 (linux64) logging started Tue Oct 13 09:40:53 2015

Set parameter Presolve to value 2
Set parameter MIPGap to value 0.05
Set parameter OutputFlag to value 1
Set parameter Threads to value 1

Gurobi 6.0.5 (linux64) logging started Tue Oct 13 09:40:58 2015

Set parameter Presolve to value 2
Set parameter MIPGap to value 0.9
Set parameter OutputFlag to value 1
Set parameter Threads to value 1

Gurobi 6.0.5 (linux64) logging started Tue Oct 13 09:42:19 2015

Set parameter Presolve to value 2
Set parameter MIPGap to value 0.05
Set parameter OutputFlag to value 1
Set parameter Threads to value 1

Gurobi 6.0.5 (linux64) logging started Tue Oct 13 09:42:29 2015

Set parameter Presolve to value 2
Set parameter MIPGap to value 0.9
Set parameter OutputFlag to value 1
Set parameter Threads to value 1

Gurobi 6.0.5 (linux64) logging started Tue Oct 13 09:46:34 2015

Set parameter Presolve to value 2
Set parameter MIPGap to value 0.9
Set parameter OutputFlag to value 1
Set parameter Threads to value 1

Gurobi 6.0.5 (linux64) logging started Tue Oct 13 09:48:57 2015

Set parameter Presolve to value 2
Set parameter MIPGap to value 0.9
Set parameter OutputFlag to value 1
Set parameter Threads to value 1

Gurobi 6.0.5 (linux64) logging started Tue Oct 13 09:53:16 2015

Set parameter Presolve to value 2
Set parameter MIPGap to value 0.9
Set parameter OutputFlag to value 1
Set parameter Threads to value 1

Gurobi 6.0.5 (linux64) logging started Tue Oct 13 09:55:22 2015

Set parameter Presolve to value 2
Set parameter MIPGap to value 0.9
Set parameter OutputFlag to value 1
Set parameter Threads to value 1

Gurobi 6.0.5 (linux64) logging started Tue Oct 13 09:56:11 2015

Set parameter Presolve to value 2
Set parameter MIPGap to value 0.05
Set parameter OutputFlag to value 1
Set parameter Threads to value 1

Gurobi 6.0.5 (linux64) logging started Tue Oct 13 09:56:12 2015

Set parameter Presolve to value 2
Set parameter MIPGap to value 0.9
Set parameter OutputFlag to value 1
Set parameter Threads to value 1

Gurobi 6.0.5 (linux64) logging started Tue Oct 13 09:57:17 2015

Set parameter Presolve to value 2
Set parameter MIPGap to value 0.05
Set parameter OutputFlag to value 1
Set parameter Threads to value 1

Gurobi 6.0.5 (linux64) logging started Tue Oct 13 09:59:18 2015

Set parameter Presolve to value 2
Set parameter MIPGap to value 0.9
Set parameter OutputFlag to value 1
Set parameter Threads to value 1

Gurobi 6.0.5 (linux64) logging started Tue Oct 13 09:59:18 2015

Set parameter Presolve to value 2
Set parameter MIPGap to value 0.9
Set parameter OutputFlag to value 1
Set parameter Threads to value 1

Gurobi 6.0.5 (linux64) logging started Tue Oct 13 09:59:25 2015

Set parameter Presolve to value 2
Set parameter MIPGap to value 0.05
Set parameter OutputFlag to value 1
Set parameter Threads to value 1

Gurobi 6.0.5 (linux64) logging started Tue Oct 13 09:59:35 2015

Set parameter Presolve to value 2
Set parameter MIPGap to value 0.9
Set parameter OutputFlag to value 1
Set parameter Threads to value 1

Gurobi 6.0.5 (linux64) logging started Tue Oct 13 09:59:38 2015

Set parameter Presolve to value 2
Set parameter MIPGap to value 0.9
Set parameter OutputFlag to value 1
Set parameter Threads to value 1

Gurobi 6.0.5 (linux64) logging started Tue Oct 13 10:01:42 2015

Set parameter Presolve to value 2
Set parameter MIPGap to value 0.05
Set parameter OutputFlag to value 1
Set parameter Threads to value 1

Gurobi 6.0.5 (linux64) logging started Tue Oct 13 10:01:47 2015

Set parameter Presolve to value 2
Set parameter MIPGap to value 0.9
Set parameter OutputFlag to value 1
Set parameter Threads to value 1

Gurobi 6.0.5 (linux64) logging started Tue Oct 13 10:01:47 2015

Set parameter Presolve to value 2
Set parameter MIPGap to value 0.9
Set parameter OutputFlag to value 1
Set parameter Threads to value 1

Gurobi 6.0.5 (linux64) logging started Tue Oct 13 10:01:57 2015

Set parameter Presolve to value 2
Set parameter MIPGap to value 0.05
Set parameter OutputFlag to value 1
Set parameter Threads to value 1

Gurobi 6.0.5 (linux64) logging started Tue Oct 13 10:02:07 2015

Set parameter Presolve to value 2
Set parameter MIPGap to value 0.9
Set parameter OutputFlag to value 1
Set parameter Threads to value 1

Gurobi 6.0.5 (linux64) logging started Tue Oct 13 10:02:26 2015

Set parameter Presolve to value 2
Set parameter MIPGap to value 0.05
Set parameter OutputFlag to value 1
Set parameter Threads to value 1

Gurobi 6.0.5 (linux64) logging started Tue Oct 13 10:02:33 2015

Set parameter Presolve to value 2
Set parameter MIPGap to value 0.9
Set parameter OutputFlag to value 1
Set parameter Threads to value 1

Gurobi 6.0.5 (linux64) logging started Tue Oct 13 10:03:39 2015

Set parameter Presolve to value 2
Set parameter MIPGap to value 0.9
Set parameter OutputFlag to value 1
Set parameter Threads to value 1

Gurobi 6.0.5 (linux64) logging started Tue Oct 13 10:03:39 2015

Set parameter Presolve to value 2
Set parameter MIPGap to value 0.9
Set parameter OutputFlag to value 1
Set parameter Threads to value 1

Gurobi 6.0.5 (linux64) logging started Tue Oct 13 10:03:39 2015

Set parameter Presolve to value 2
Set parameter MIPGap to value 0.9
Set parameter OutputFlag to value 1
Set parameter Threads to value 1

Gurobi 6.0.5 (linux64) logging started Tue Oct 13 10:03:39 2015

Set parameter Presolve to value 2
Set parameter MIPGap to value 0.9
Set parameter OutputFlag to value 1
Set parameter Threads to value 1

Gurobi 6.0.5 (linux64) logging started Tue Oct 13 10:25:54 2015

Set parameter Presolve to value 2
Set parameter MIPGap to value 0.05
Set parameter OutputFlag to value 1
Set parameter Threads to value 1
